p cnf 70 35
54 -62 -33 0
2 -4 17 0
-51 2 17 0
65 -34 48 0
11 -35 -67 0
27 -59 39 0
-51 36 48 0
37 -54 20 0
16 28 38 0
26 -5 -48 0
11 24 -31 0
-48 -6 -52 0
-15 -34 19 0
26 55 -69 0
-56 -33 -26 0
19 25 61 0
-23 -18 -28 0
12 -28 47 0
-52 -43 65 0
53 22 -15 0
28 34 16 0
50 52 21 0
-60 -11 -58 0
15 12 -27 0
64 55 16 0
54 20 -49 0
-62 11 -8 0
-31 55 -27 0
42 -58 11 0
51 68 66 0
49 -5 -38 0
-29 50 -24 0
-42 14 1 0
-8 -63 10 0
22 -63 16 0
